************************************************************************
file with basedata            : md364_.bas
initial value random generator: 2142300525
************************************************************************
projects                      :  1
jobs (incl. supersource/sink ):  22
horizon                       :  163
RESOURCES
  - renewable                 :  2   R
  - nonrenewable              :  2   N
  - doubly constrained        :  0   D
************************************************************************
PROJECT INFORMATION:
pronr.  #jobs rel.date duedate tardcost  MPM-Time
    1     20      0       23        8       23
************************************************************************
PRECEDENCE RELATIONS:
jobnr.    #modes  #successors   successors
   1        1          3           2   3   4
   2        3          3          13  15  16
   3        3          3           8   9  11
   4        3          3           5   7  18
   5        3          3           6   8  12
   6        3          3          11  13  14
   7        3          2          11  19
   8        3          1          10
   9        3          3          13  17  18
  10        3          1          14
  11        3          1          15
  12        3          1          15
  13        3          2          20  21
  14        3          1          16
  15        3          1          20
  16        3          1          17
  17        3          2          19  21
  18        3          3          19  20  21
  19        3          1          22
  20        3          1          22
  21        3          1          22
  22        1          0        
************************************************************************
REQUESTS/DURATIONS:
jobnr. mode duration  R 1  R 2  N 1  N 2
------------------------------------------------------------------------
  1      1     0       0    0    0    0
  2      1     4       0    9    8    2
         2     7       3    0    7    2
         3     9       0    9    5    1
  3      1     3       9    0    7    5
         2     6       0    9    7    5
         3     6       6    0    6    4
  4      1     3       8    0    7    5
         2     4       8    0    6    3
         3     9       6    0    3    1
  5      1     3       0    6    9   10
         2     3       0    8    7   10
         3     6       3    0    6   10
  6      1     2       0    4    4    9
         2     8       7    0    3    6
         3     9       5    0    3    5
  7      1     3       3    0    9    5
         2     6       3    0    6    4
         3     7       0    8    6    4
  8      1     2       0    4    8   10
         2     6       0    4    7    8
         3     7       4    0    7    6
  9      1     2       5    0    6   10
         2     2       0    7    9   10
         3    10       0    7    6   10
 10      1     1       0    6    9    6
         2     4       0    3    8    5
         3    10       8    0    8    5
 11      1     3       4    0    3    7
         2     8       0    5    1    7
         3     8       3    0    2    7
 12      1     1       0    8    2    4
         2     5       4    0    2    4
         3    10       0    7    2    3
 13      1     2       9    0    6   10
         2     4       0    9    5   10
         3    10       0    8    5    9
 14      1     1       0    6    8    7
         2     9       4    0    6    6
         3    10       0    6    5    4
 15      1     3       5    0   10    9
         2     7       0    6    9    7
         3     8       0    1    7    6
 16      1     4       0    4    6    3
         2     6      10    0    1    3
         3     6       0    2    3    3
 17      1     3       0   10    9    5
         2     4       0   10    6    4
         3     6       4    0    5    2
 18      1     3       0    7    3   10
         2     4       0    6    2    7
         3     8       9    0    2    7
 19      1     1       4    0    5    8
         2     7       0    8    5    6
         3     7       0    9    4    5
 20      1     9       7    0    2    5
         2    10       0    7    2    4
         3    10       6    0    2    4
 21      1     2       0    8    9    5
         2     2       0    5    9    6
         3     7       2    0    5    5
 22      1     0       0    0    0    0
************************************************************************
RESOURCEAVAILABILITIES:
  R 1  R 2  N 1  N 2
   24   34  111  119
************************************************************************
MAXIMAL LAGS:
from  to  type  delay
    1   12   ES      0
    1    2   ES      0
    2   12   ES      0
    1    3   ES      0
    3   12   ES      0
    1    4   ES      0
    4   12   ES      0
    1    5   ES      0
    5   12   ES      0
    1    6   ES      0
    6   12   ES      0
    1    7   ES      0
    7   12   ES      0
    1    8   ES      0
    8   12   ES      0
    1    9   ES      0
    9   12   ES      0
    1   10   ES      0
   10   12   ES      0
    1   11   ES      0
   11   12   ES      0
    1   12   ES      0
    2   13   SS     -9
    2   13   SE     10
    2   13   ES      5
    2   13   EE     12
    2   15   SS    -12
    2   15   SE     -4
    2   15   ES     -4
    2   15   EE     11
    2   16   SS      1
    2   16   SE    -11
    2   16   ES      5
    2   16   EE     10
    3    8   SS    -10
    3    8   SE     10
    3    8   ES      7
    3    8   EE      3
    3    9   SS     -9
    3    9   SE     -4
    3    9   ES    -11
    3    9   EE     12
    3   11   SS      5
    3   11   SE     -5
    3   11   ES     -4
    3   11   EE      1
    4    5   SS      6
    4    5   SE     -2
    4    5   ES     -4
    4    5   EE     -4
    4    7   SS      6
    4    7   SE     -1
    4    7   ES    -12
    4    7   EE      0
    4   18   SS    -12
    4   18   SE      6
    4   18   ES      9
    4   18   EE     11
    5    6   SS     -2
    5    6   SE      4
    5    6   ES    -11
    5    6   EE      1
    5    8   SS     -8
    5    8   SE     10
    5    8   ES      2
    5    8   EE     -4
    6   11   SS     -2
    6   11   SE      0
    6   11   ES      1
    6   11   EE      7
    6   13   SS      5
    6   13   SE     -5
    6   13   ES      9
    6   13   EE      7
    6   14   SS      8
    6   14   SE      5
    6   14   ES     -1
    6   14   EE      6
    7   11   SS      8
    7   11   SE    -11
    7   11   ES      3
    7   11   EE     -4
    7   19   SS     -8
    7   19   SE      7
    7   19   ES     -4
    7   19   EE    -10
    8   10   SS     -3
    8   10   SE     -8
    8   10   ES      9
    8   10   EE      7
    9   13   SS      9
    9   13   SE    -12
    9   13   ES     -3
    9   13   EE      7
    9   17   SS     -1
    9   17   SE      2
    9   17   ES      8
    9   17   EE      2
    9   18   SS      1
    9   18   SE     -7
    9   18   ES     -2
    9   18   EE     -6
   10   14   SS      9
   10   14   SE     12
   10   14   ES      8
   10   14   EE      5
   11   15   SS     -3
   11   15   SE      2
   15   11   SE      0
   11   15   ES      0
   11   15   EE     12
   12   15   SS      0
   12   15   SE      7
   12   15   ES    -10
   12   15   EE      7
   13   20   SS     -1
   13   20   SE     -6
   13   20   ES    -11
   13   20   EE     -9
   13   21   SS      0
   13   21   SE     -3
   13   21   ES      3
   13   21   EE     -8
   14   16   SS      4
   14   16   SE      8
   14   16   ES      0
   14   16   EE     -9
   15   20   SS      3
   15   20   SE     -3
   15   20   ES      9
   15   20   EE     10
   16   17   SS      0
   16   17   SE      4
   16   17   ES     -2
   16   17   EE      6
   17   19   SS    -12
   17   19   SE     -8
   17   19   ES      9
   17   19   EE      0
   17   21   SS     -8
   17   21   SE      7
   17   21   ES      2
   17   21   EE      0
   18   19   SS    -10
   18   19   SE     -9
   18   19   ES     12
   18   19   EE      0
   18   20   SS      0
   18   20   SE     -8
   18   20   ES     12
   18   20   EE     11
   18   21   SS      5
   18   21   SE      0
   18   21   ES      1
   18   21   EE    -12
   19   22   SS     12
   19   22   SE     -6
   19   22   ES     -3
   19   22   EE      7
   20   22   SS      4
   20   22   SE     -8
   20   22   ES     -4
   20   22   EE      0
   21   22   SS      5
   21   22   SE      7
   21   22   ES      8
   21   22   EE      9
************************************************************************
